52      4       
10      10      10      10      
0       0       0       0       0       9       2       3       4       5       7       8       9       11      13      
10      0       0       0       1       7       10      12      15      16      20      21      27      
2       0       4       1       0       3       6       16      22      
5       1       2       0       0       7       14      18      19      21      23      28      37      
4       0       0       3       2       7       15      19      21      23      26      31      51      
4       0       0       3       2       6       14      17      19      20      21      23      
6       2       0       0       2       4       14      22      23      37      
10      0       3       3       0       6       20      22      24      26      27      37      
10      0       2       4       0       9       18      21      26      27      29      31      32      36      48      
9       0       2       4       0       7       17      19      23      25      26      31      36      
7       0       0       2       3       6       16      19      23      26      28      37      
7       0       3       0       2       3       14      19      23      
6       3       0       1       0       6       19      22      23      25      31      51      
5       1       3       0       0       9       24      25      26      29      31      32      36      48      51      
3       2       3       0       0       6       22      24      32      37      49      50      
10      3       2       0       0       8       24      25      31      33      36      45      48      49      
9       0       5       3       0       9       24      29      37      45      46      47      48      49      51      
7       1       0       0       1       8       24      33      45      46      47      49      50      51      
8       0       0       4       2       7       24      29      45      46      47      48      49      
6       1       0       0       1       8       25      30      31      33      34      44      48      51      
10      4       4       0       0       4       24      25      33      45      
9       0       0       3       2       6       28      29      30      35      36      46      
6       0       2       2       0       3       24      33      45      
10      3       0       5       0       6       30      34      35      41      43      44      
2       0       0       4       2       9       38      39      40      41      42      43      46      47      50      
4       2       0       2       0       4       30      33      41      49      
1       0       1       0       3       5       34      38      39      41      43      
10      2       0       4       0       5       40      41      45      47      48      
9       0       0       3       3       3       33      39      44      
4       2       0       0       2       3       38      39      40      
2       4       0       1       0       3       38      43      46      
4       2       0       2       0       2       39      45      
8       0       0       1       2       1       38      
8       2       2       0       0       1       42      
4       4       0       2       0       1       42      
1       1       3       0       0       1       40      
10      0       4       2       0       1       38      
1       1       0       1       0       1       52      
10      7       0       1       0       1       52      
3       2       2       0       0       1       52      
7       0       0       1       4       1       52      
7       0       1       0       6       1       52      
8       3       0       0       5       1       52      
5       0       0       3       2       1       52      
8       3       0       0       2       1       52      
2       0       0       2       2       1       52      
1       3       2       0       0       1       52      
9       3       5       0       0       1       52      
9       0       2       0       2       1       52      
8       0       1       0       4       1       52      
10      3       1       0       0       1       52      
0       0       0       0       0       0       
